c SAT Generator for power-law distributed variable frequencies
c -g u -v 20 -c 91 -k 3 -p 2.750000 -b 3.200000 -f /home/schmidt/Devel/ni-kop-sat/data/ensemble/ruf20-91/ruf20-91-270 -u 1 -U 1 -s 2071969404
p cnf 20 91
4 5 6 0
3 -8 -14 0
-1 -4 -6 0
-8 -16 17 0
-8 13 -20 0
14 15 -16 0
13 16 -18 0
-6 7 -11 0
4 16 18 0
3 -6 9 0
7 -8 9 0
-13 -14 -15 0
4 -6 -8 0
10 15 -19 0
10 -14 17 0
15 16 -17 0
-4 15 -17 0
1 -5 10 0
3 13 20 0
-5 -6 -16 0
-15 16 -18 0
-8 9 -12 0
-8 -9 15 0
4 -17 20 0
-6 7 -10 0
5 10 -11 0
-5 -11 -13 0
-4 6 8 0
9 -10 16 0
-7 15 -19 0
-15 -16 17 0
-3 -10 -11 0
-3 -5 15 0
-4 -6 19 0
-5 6 -14 0
-7 -11 14 0
-16 18 19 0
5 -7 -9 0
-9 12 -15 0
-6 -15 18 0
-6 13 16 0
-8 9 -18 0
-6 8 -15 0
1 -12 18 0
5 -10 12 0
-6 -10 -19 0
-2 17 19 0
-4 -7 -19 0
-5 9 -13 0
2 -9 18 0
-3 7 -20 0
-1 -4 14 0
-6 -7 -17 0
-2 7 -17 0
-10 -12 -18 0
-12 17 -18 0
-5 10 12 0
7 17 -19 0
3 4 7 0
-1 2 6 0
-3 17 -18 0
5 13 15 0
6 -9 -12 0
1 -8 -9 0
-2 -6 10 0
2 -10 13 0
-6 -11 -19 0
4 -5 -13 0
2 3 13 0
-11 13 15 0
-2 11 17 0
7 9 -13 0
-1 -10 -20 0
1 -4 -20 0
7 -9 16 0
1 -7 -12 0
-1 10 -18 0
-5 -9 12 0
-8 -13 -18 0
1 -3 14 0
-13 15 18 0
1 -5 9 0
3 4 -14 0
-2 -9 18 0
5 -13 20 0
3 -10 20 0
3 7 -11 0
-1 4 -13 0
2 -5 15 0
2 5 8 0
4 6 -18 0
